
Gurobi 12.0.1 (win64, C++) logging started Thu Apr 17 14:19:37 2025

Set parameter Username
Set parameter LicenseID to value 2618661
Academic license - for non-commercial use only - expires 2026-02-05
Set parameter Threads to value 8
Set parameter LazyConstraints to value 1
Set parameter PreCrush to value 1
Set parameter Seed to value 10
Set parameter Cuts to value -1
Set parameter TimeLimit to value 28800
Set parameter NumericFocus to value 0
Set parameter SolutionLimit to value 10000
Gurobi Optimizer version 12.0.1 build v12.0.1rc0 (win64 - Windows Server 2022.0 (20348.2))

CPU model: AMD EPYC 7513 32-Core Processor, instruction set [SSE2|AVX|AVX2]
Thread count: 18 physical cores, 18 logical processors, using up to 8 threads

Non-default parameters:
SolutionLimit  10000
TimeLimit  28800
PreCrush  1
Seed  10
Threads  8
LazyConstraints  1

Optimize a model with 139 rows, 256 columns and 724 nonzeros
Model fingerprint: 0xcadfa3dc
Variable types: 0 continuous, 256 integer (256 binary)
Coefficient statistics:
  Matrix range     [1e+00, 1e+00]
  Objective range  [8e+00, 6e+01]
  Bounds range     [1e+00, 1e+00]
  RHS range        [1e+00, 4e+00]

User MIP start produced solution with objective 333.464 (0.03s)
Loaded user MIP start with objective 333.464

Presolve removed 7 rows and 26 columns
Presolve time: 0.00s
Presolved: 132 rows, 230 columns, 662 nonzeros
Variable types: 0 continuous, 230 integer (230 binary)

Root relaxation: objective 2.487960e+02, 63 iterations, 0.00 seconds (0.00 work units)

    Nodes    |    Current Node    |     Objective Bounds      |     Work
 Expl Unexpl |  Obj  Depth IntInf | Incumbent    BestBd   Gap | It/Node Time

     0     0  248.79604    0    -  333.46418  248.79604  25.4%     -    0s
     0     0  250.13267    0   12  333.46418  250.13267  25.0%     -    0s
     0     0  251.73966    0    -  333.46418  251.73966  24.5%     -    0s
     0     0  255.70093    0   21  333.46418  255.70093  23.3%     -    0s
     0     0  257.48490    0    -  333.46418  257.48490  22.8%     -    0s
     0     0  262.37963    0   30  333.46418  262.37963  21.3%     -    0s
     0     0  263.28581    0   24  333.46418  263.28581  21.0%     -    0s
     0     0  263.75365    0    -  333.46418  263.75365  20.9%     -    0s
     0     0  265.71510    0   32  333.46418  265.71510  20.3%     -    0s
     0     0  267.47408    0   36  333.46418  267.47408  19.8%     -    0s
     0     0  268.20541    0   44  333.46418  268.20541  19.6%     -    0s
     0     0  268.37221    0   39  333.46418  268.37221  19.5%     -    0s
     0     2  268.37221    0   25  333.46418  268.37221  19.5%     -    0s
H  184   168                     314.9377083  272.09670  13.6%  18.9    5s
H  320   273                     302.0218782  273.90358  9.31%  17.5    9s
   401   302  287.07435    6   22  302.02188  274.33272  9.17%  17.2   10s
*  854   443              14     301.7428984  281.37803  6.75%  15.5   13s
  1145   458  298.10006    9   26  301.74290  287.34457  4.77%  15.1   15s
* 2170   396              12     301.6582384  293.80530  2.60%  14.7   16s

Cutting planes:
  MIR: 2
  Lazy constraints: 2104

Explored 3154 nodes (43732 simplex iterations) in 17.41 seconds (3.72 work units)
Thread count was 8 (of 18 available processors)

Solution count 5: 301.658 301.743 302.022 ... 333.464

Optimal solution found (tolerance 1.00e-04)
Best objective 3.016582384371e+02, best bound 3.016582384371e+02, gap 0.0000%

User-callback calls 6852, time in user-callback 14.38 sec
### START EXACT APPROACH ###
ProblemVariant: 2
### START PREPROCESSING ###
## Start infeasible path procedure ## 
Deleted arcs: 10
Infeasible tail paths: 2
Infeasible 2-node combinations: 5
## Start extended infeasible path procedure ##
Deleted arcs: 10
Infeasible tail paths: 2
Infeasible 2-node combinations: 5
## Start start solution procedure ##
Start solution with 4 Vehicles and total costs 333.464 in 1.50308 s.
### END PREPROCESSING ###
Route 0 0-1-3-8-7-14-0 : weight util 0.955556 | volume util 0.654800 | infeasible with packing heuristic | feasible with CP model
Route 1 0-2-11-0 : weight util 0.544444 | volume util 0.355400 | feasible with packing heuristic | feasible with CP model
Route 2 0-4-13-6-0 : weight util 0.522222 | volume util 0.562511 | feasible with packing heuristic | feasible with CP model
Route 3 0-5-9-10-15-12-0 : weight util 0.844444 | volume util 0.568978 | feasible with packing heuristic | feasible with CP model
